Li2Nb2O6
5.5923991203
   1.000000000   0.000000000   0.000000000
   0.563873923   0.825860883   0.000000000
   0.563873923   0.297774270   0.770309472
   Li   Nb    O
    2    2    6
Direct
    0.717167974    0.717167974    0.717167974
    0.217168003    0.217168003    0.217168003
    0.999230981    0.999230981    0.999230981
    0.499231011    0.499231011    0.499231011
    0.639684021    0.890367985    0.279949009
    0.890367985    0.279949009    0.639684021
    0.279949009    0.639684021    0.890367985
    0.390368015    0.139684007    0.779949009
    0.139684007    0.779949009    0.390368015
    0.779949009    0.390368015    0.139684007
