Li2Nb2O6
5.5923991203
   1.000000000   0.000000000   0.000000000
   0.563873923   0.825860883   0.000000000
   0.563873923   0.297774270   0.770309472
Li Nb O
2  2  6
Cartesian
1.525952612   0.805835146   0.552441283
0.462078751   0.244017602   0.167286570
2.126111567   1.122771056   0.769717089
1.062237708   0.560953513   0.384562376
1.299595256   0.818681702   0.215647373
1.408925069   0.421680378   0.492754660
1.142705436   0.793418687   0.685858892
0.908925091   0.347608304   0.600802109
0.799595258   0.760370928   0.300704180
1.078831522   0.363983977   0.107599914
