Li2Nb2O6
1.0
        5.5923991203         0.0000000000         0.0000000000
        3.1534080317         4.6185436781         0.0000000000
        3.1534080317         1.6652725673         4.3078780139
   Li   Nb    O
    2    2    6
Cartesian
     8.533736040         4.506551763         3.089472145
     2.584128803         1.364643827         0.935533267
    11.890064460         6.278983871         4.304565173
     5.940457222         3.137075935         2.150626295
     7.267855368         4.578394833         1.205986183
     7.879271321         2.358204980         2.755680732
     6.390464879         4.437113973         3.835596666
     5.083071880         1.943964375         3.359925190
     4.471655819         4.252297713         1.681657787
     6.033256455         2.035543670         0.601741661
